*SENSE:Minimize
NAME          system.lp
ROWS
 N  OBJ
 G  _C1
 L  _C2
 G  _C3
 G  _C4
 L  _C5
 G  _C6
 G  _C7
 L  _C8
 G  _C9
 G  _C10
 L  _C11
 G  _C12
 G  _C13
 L  _C14
 G  _C15
 G  _C16
 L  _C17
 G  _C18
 G  _C19
 L  _C20
 G  _C21
 G  _C22
 L  _C23
 G  _C24
 L  _C25
 L  _C26
 L  _C27
 L  _C28
 L  _C29
 L  _C30
 L  _C31
 L  _C32
 L  _C33
 L  _C34
 L  _C35
 L  _C36
 L  _C37
 L  _C38
 L  _C39
 L  _C40
 L  _C41
 L  _C42
 L  _C43
 L  _C44
 L  _C45
 L  _C46
 L  _C47
 L  _C48
 L  _C49
 L  _C50
 L  _C51
 L  _C52
 L  _C53
 L  _C54
 L  _C55
 L  _C56
 L  _C57
 L  _C58
 L  _C59
 L  _C60
 L  _C61
 L  _C62
 L  _C63
 L  _C64
 L  _C65
 L  _C66
 L  _C67
 G  _C68
 L  _C69
 L  _C70
 L  _C71
 G  _C72
 L  _C73
 L  _C74
 E  _C75
 L  _C76
 G  _C77
 L  _C78
 L  _C79
 L  _C80
 G  _C81
 L  _C82
 L  _C83
 E  _C84
 L  _C85
 G  _C86
 L  _C87
 L  _C88
 L  _C89
 G  _C90
 L  _C91
 L  _C92
 E  _C93
 L  _C94
 G  _C95
 L  _C96
 L  _C97
 L  _C98
 G  _C99
 L  _C100
 L  _C101
 L  _C102
 G  _C103
 L  _C104
 L  _C105
 E  _C106
 L  _C107
 G  _C108
 L  _C109
 L  _C110
 L  _C111
 G  _C112
 L  _C113
 L  _C114
 L  _C115
 G  _C116
 L  _C117
 L  _C118
 E  _C119
 L  _C120
 G  _C121
 L  _C122
 L  _C123
 L  _C124
 G  _C125
 L  _C126
 L  _C127
 L  _C128
 G  _C129
 L  _C130
 L  _C131
 E  _C132
 L  _C133
 L  _C134
 L  _C135
 L  _C136
 L  _C137
 L  _C138
 L  _C139
 L  _C140
 L  _C141
 L  _C142
 L  _C143
 L  _C144
 L  _C145
 L  _C146
 L  _C147
 E  _C148
COLUMNS
    MARK      'MARKER'                 'INTORG'
    DELAY_task_a_0_task_c_0  _C68       1.000000000000e+00
    DELAY_task_a_0_task_c_0  _C69      -1.000000000000e+00
    DELAY_task_a_0_task_c_0  _C70      -1.000000000000e+00
    DELAY_task_a_0_task_c_0  _C133      1.000000000000e+00
    DELAY_task_a_0_task_c_0  _C148     -1.000000000000e+00
    MARK      'MARKER'                 'INTEND'
    MARK      'MARKER'                 'INTORG'
    DELAY_task_a_0_task_c_1  _C77       1.000000000000e+00
    DELAY_task_a_0_task_c_1  _C78      -1.000000000000e+00
    DELAY_task_a_0_task_c_1  _C79      -1.000000000000e+00
    DELAY_task_a_0_task_c_1  _C135      1.000000000000e+00
    DELAY_task_a_0_task_c_1  _C148     -1.000000000000e+00
    MARK      'MARKER'                 'INTEND'
    MARK      'MARKER'                 'INTORG'
    DELAY_task_a_0_task_c_2  _C86       1.000000000000e+00
    DELAY_task_a_0_task_c_2  _C87      -1.000000000000e+00
    DELAY_task_a_0_task_c_2  _C88      -1.000000000000e+00
    DELAY_task_a_0_task_c_2  _C137      1.000000000000e+00
    DELAY_task_a_0_task_c_2  _C148     -1.000000000000e+00
    MARK      'MARKER'                 'INTEND'
    MARK      'MARKER'                 'INTORG'
    DELAY_task_a_1_task_c_0  _C72       1.000000000000e+00
    DELAY_task_a_1_task_c_0  _C73      -1.000000000000e+00
    DELAY_task_a_1_task_c_0  _C74      -1.000000000000e+00
    DELAY_task_a_1_task_c_0  _C134      1.000000000000e+00
    DELAY_task_a_1_task_c_0  _C148     -1.000000000000e+00
    MARK      'MARKER'                 'INTEND'
    MARK      'MARKER'                 'INTORG'
    DELAY_task_a_1_task_c_1  _C81       1.000000000000e+00
    DELAY_task_a_1_task_c_1  _C82      -1.000000000000e+00
    DELAY_task_a_1_task_c_1  _C83      -1.000000000000e+00
    DELAY_task_a_1_task_c_1  _C136      1.000000000000e+00
    DELAY_task_a_1_task_c_1  _C148     -1.000000000000e+00
    MARK      'MARKER'                 'INTEND'
    MARK      'MARKER'                 'INTORG'
    DELAY_task_a_1_task_c_2  _C90       1.000000000000e+00
    DELAY_task_a_1_task_c_2  _C91      -1.000000000000e+00
    DELAY_task_a_1_task_c_2  _C92      -1.000000000000e+00
    DELAY_task_a_1_task_c_2  _C138      1.000000000000e+00
    DELAY_task_a_1_task_c_2  _C148     -1.000000000000e+00
    MARK      'MARKER'                 'INTEND'
    MARK      'MARKER'                 'INTORG'
    DELAY_task_b_0_task_c_0  _C95       1.000000000000e+00
    DELAY_task_b_0_task_c_0  _C96      -1.000000000000e+00
    DELAY_task_b_0_task_c_0  _C97      -1.000000000000e+00
    DELAY_task_b_0_task_c_0  _C139      1.000000000000e+00
    DELAY_task_b_0_task_c_0  _C148     -1.000000000000e+00
    MARK      'MARKER'                 'INTEND'
    MARK      'MARKER'                 'INTORG'
    DELAY_task_b_0_task_c_1  _C108      1.000000000000e+00
    DELAY_task_b_0_task_c_1  _C109     -1.000000000000e+00
    DELAY_task_b_0_task_c_1  _C110     -1.000000000000e+00
    DELAY_task_b_0_task_c_1  _C142      1.000000000000e+00
    DELAY_task_b_0_task_c_1  _C148     -1.000000000000e+00
    MARK      'MARKER'                 'INTEND'
    MARK      'MARKER'                 'INTORG'
    DELAY_task_b_0_task_c_2  _C121      1.000000000000e+00
    DELAY_task_b_0_task_c_2  _C122     -1.000000000000e+00
    DELAY_task_b_0_task_c_2  _C123     -1.000000000000e+00
    DELAY_task_b_0_task_c_2  _C145      1.000000000000e+00
    DELAY_task_b_0_task_c_2  _C148     -1.000000000000e+00
    MARK      'MARKER'                 'INTEND'
    MARK      'MARKER'                 'INTORG'
    DELAY_task_b_1_task_c_0  _C99       1.000000000000e+00
    DELAY_task_b_1_task_c_0  _C100     -1.000000000000e+00
    DELAY_task_b_1_task_c_0  _C101     -1.000000000000e+00
    DELAY_task_b_1_task_c_0  _C140      1.000000000000e+00
    DELAY_task_b_1_task_c_0  _C148     -1.000000000000e+00
    MARK      'MARKER'                 'INTEND'
    MARK      'MARKER'                 'INTORG'
    DELAY_task_b_1_task_c_1  _C112      1.000000000000e+00
    DELAY_task_b_1_task_c_1  _C113     -1.000000000000e+00
    DELAY_task_b_1_task_c_1  _C114     -1.000000000000e+00
    DELAY_task_b_1_task_c_1  _C143      1.000000000000e+00
    DELAY_task_b_1_task_c_1  _C148     -1.000000000000e+00
    MARK      'MARKER'                 'INTEND'
    MARK      'MARKER'                 'INTORG'
    DELAY_task_b_1_task_c_2  _C125      1.000000000000e+00
    DELAY_task_b_1_task_c_2  _C126     -1.000000000000e+00
    DELAY_task_b_1_task_c_2  _C127     -1.000000000000e+00
    DELAY_task_b_1_task_c_2  _C146      1.000000000000e+00
    DELAY_task_b_1_task_c_2  _C148     -1.000000000000e+00
    MARK      'MARKER'                 'INTEND'
    MARK      'MARKER'                 'INTORG'
    DELAY_task_b_2_task_c_0  _C103      1.000000000000e+00
    DELAY_task_b_2_task_c_0  _C104     -1.000000000000e+00
    DELAY_task_b_2_task_c_0  _C105     -1.000000000000e+00
    DELAY_task_b_2_task_c_0  _C141      1.000000000000e+00
    DELAY_task_b_2_task_c_0  _C148     -1.000000000000e+00
    MARK      'MARKER'                 'INTEND'
    MARK      'MARKER'                 'INTORG'
    DELAY_task_b_2_task_c_1  _C116      1.000000000000e+00
    DELAY_task_b_2_task_c_1  _C117     -1.000000000000e+00
    DELAY_task_b_2_task_c_1  _C118     -1.000000000000e+00
    DELAY_task_b_2_task_c_1  _C144      1.000000000000e+00
    DELAY_task_b_2_task_c_1  _C148     -1.000000000000e+00
    MARK      'MARKER'                 'INTEND'
    MARK      'MARKER'                 'INTORG'
    DELAY_task_b_2_task_c_2  _C129      1.000000000000e+00
    DELAY_task_b_2_task_c_2  _C130     -1.000000000000e+00
    DELAY_task_b_2_task_c_2  _C131     -1.000000000000e+00
    DELAY_task_b_2_task_c_2  _C147      1.000000000000e+00
    DELAY_task_b_2_task_c_2  _C148     -1.000000000000e+00
    MARK      'MARKER'                 'INTEND'
    MARK      'MARKER'                 'INTORG'
    DEP_task_a_0_task_c_0  _C67       6.000000000000e+06
    DEP_task_a_0_task_c_0  _C69       6.000000000000e+06
    DEP_task_a_0_task_c_0  _C70      -6.000000000000e+06
    DEP_task_a_0_task_c_0  _C75       1.000000000000e+00
    MARK      'MARKER'                 'INTEND'
    MARK      'MARKER'                 'INTORG'
    DEP_task_a_0_task_c_1  _C76       6.000000000000e+06
    DEP_task_a_0_task_c_1  _C78       6.000000000000e+06
    DEP_task_a_0_task_c_1  _C79      -6.000000000000e+06
    DEP_task_a_0_task_c_1  _C84       1.000000000000e+00
    MARK      'MARKER'                 'INTEND'
    MARK      'MARKER'                 'INTORG'
    DEP_task_a_0_task_c_2  _C85       6.000000000000e+06
    DEP_task_a_0_task_c_2  _C87       6.000000000000e+06
    DEP_task_a_0_task_c_2  _C88      -6.000000000000e+06
    DEP_task_a_0_task_c_2  _C93       1.000000000000e+00
    MARK      'MARKER'                 'INTEND'
    MARK      'MARKER'                 'INTORG'
    DEP_task_a_1_task_c_0  _C71       6.000000000000e+06
    DEP_task_a_1_task_c_0  _C73       6.000000000000e+06
    DEP_task_a_1_task_c_0  _C74      -6.000000000000e+06
    DEP_task_a_1_task_c_0  _C75       1.000000000000e+00
    MARK      'MARKER'                 'INTEND'
    MARK      'MARKER'                 'INTORG'
    DEP_task_a_1_task_c_1  _C80       6.000000000000e+06
    DEP_task_a_1_task_c_1  _C82       6.000000000000e+06
    DEP_task_a_1_task_c_1  _C83      -6.000000000000e+06
    DEP_task_a_1_task_c_1  _C84       1.000000000000e+00
    MARK      'MARKER'                 'INTEND'
    MARK      'MARKER'                 'INTORG'
    DEP_task_a_1_task_c_2  _C89       6.000000000000e+06
    DEP_task_a_1_task_c_2  _C91       6.000000000000e+06
    DEP_task_a_1_task_c_2  _C92      -6.000000000000e+06
    DEP_task_a_1_task_c_2  _C93       1.000000000000e+00
    MARK      'MARKER'                 'INTEND'
    MARK      'MARKER'                 'INTORG'
    DEP_task_b_0_task_c_0  _C94       6.000000000000e+06
    DEP_task_b_0_task_c_0  _C96       6.000000000000e+06
    DEP_task_b_0_task_c_0  _C97      -6.000000000000e+06
    DEP_task_b_0_task_c_0  _C106      1.000000000000e+00
    MARK      'MARKER'                 'INTEND'
    MARK      'MARKER'                 'INTORG'
    DEP_task_b_0_task_c_1  _C107      6.000000000000e+06
    DEP_task_b_0_task_c_1  _C109      6.000000000000e+06
    DEP_task_b_0_task_c_1  _C110     -6.000000000000e+06
    DEP_task_b_0_task_c_1  _C119      1.000000000000e+00
    MARK      'MARKER'                 'INTEND'
    MARK      'MARKER'                 'INTORG'
    DEP_task_b_0_task_c_2  _C120      6.000000000000e+06
    DEP_task_b_0_task_c_2  _C122      6.000000000000e+06
    DEP_task_b_0_task_c_2  _C123     -6.000000000000e+06
    DEP_task_b_0_task_c_2  _C132      1.000000000000e+00
    MARK      'MARKER'                 'INTEND'
    MARK      'MARKER'                 'INTORG'
    DEP_task_b_1_task_c_0  _C98       6.000000000000e+06
    DEP_task_b_1_task_c_0  _C100      6.000000000000e+06
    DEP_task_b_1_task_c_0  _C101     -6.000000000000e+06
    DEP_task_b_1_task_c_0  _C106      1.000000000000e+00
    MARK      'MARKER'                 'INTEND'
    MARK      'MARKER'                 'INTORG'
    DEP_task_b_1_task_c_1  _C111      6.000000000000e+06
    DEP_task_b_1_task_c_1  _C113      6.000000000000e+06
    DEP_task_b_1_task_c_1  _C114     -6.000000000000e+06
    DEP_task_b_1_task_c_1  _C119      1.000000000000e+00
    MARK      'MARKER'                 'INTEND'
    MARK      'MARKER'                 'INTORG'
    DEP_task_b_1_task_c_2  _C124      6.000000000000e+06
    DEP_task_b_1_task_c_2  _C126      6.000000000000e+06
    DEP_task_b_1_task_c_2  _C127     -6.000000000000e+06
    DEP_task_b_1_task_c_2  _C132      1.000000000000e+00
    MARK      'MARKER'                 'INTEND'
    MARK      'MARKER'                 'INTORG'
    DEP_task_b_2_task_c_0  _C102      6.000000000000e+06
    DEP_task_b_2_task_c_0  _C104      6.000000000000e+06
    DEP_task_b_2_task_c_0  _C105     -6.000000000000e+06
    DEP_task_b_2_task_c_0  _C106      1.000000000000e+00
    MARK      'MARKER'                 'INTEND'
    MARK      'MARKER'                 'INTORG'
    DEP_task_b_2_task_c_1  _C115      6.000000000000e+06
    DEP_task_b_2_task_c_1  _C117      6.000000000000e+06
    DEP_task_b_2_task_c_1  _C118     -6.000000000000e+06
    DEP_task_b_2_task_c_1  _C119      1.000000000000e+00
    MARK      'MARKER'                 'INTEND'
    MARK      'MARKER'                 'INTORG'
    DEP_task_b_2_task_c_2  _C128      6.000000000000e+06
    DEP_task_b_2_task_c_2  _C130      6.000000000000e+06
    DEP_task_b_2_task_c_2  _C131     -6.000000000000e+06
    DEP_task_b_2_task_c_2  _C132      1.000000000000e+00
    MARK      'MARKER'                 'INTEND'
    MARK      'MARKER'                 'INTORG'
    EXE_task_b_0_task_a_0  _C55      -6.000000000000e+06
    EXE_task_b_0_task_a_0  _C56       6.000000000000e+06
    MARK      'MARKER'                 'INTEND'
    MARK      'MARKER'                 'INTORG'
    EXE_task_b_0_task_a_1  _C57      -6.000000000000e+06
    EXE_task_b_0_task_a_1  _C58       6.000000000000e+06
    MARK      'MARKER'                 'INTEND'
    MARK      'MARKER'                 'INTORG'
    EXE_task_b_1_task_a_0  _C59      -6.000000000000e+06
    EXE_task_b_1_task_a_0  _C60       6.000000000000e+06
    MARK      'MARKER'                 'INTEND'
    MARK      'MARKER'                 'INTORG'
    EXE_task_b_1_task_a_1  _C61      -6.000000000000e+06
    EXE_task_b_1_task_a_1  _C62       6.000000000000e+06
    MARK      'MARKER'                 'INTEND'
    MARK      'MARKER'                 'INTORG'
    EXE_task_b_2_task_a_0  _C63      -6.000000000000e+06
    EXE_task_b_2_task_a_0  _C64       6.000000000000e+06
    MARK      'MARKER'                 'INTEND'
    MARK      'MARKER'                 'INTORG'
    EXE_task_b_2_task_a_1  _C65      -6.000000000000e+06
    EXE_task_b_2_task_a_1  _C66       6.000000000000e+06
    MARK      'MARKER'                 'INTEND'
    MARK      'MARKER'                 'INTORG'
    EXE_task_c_0_task_a_0  _C25      -6.000000000000e+06
    EXE_task_c_0_task_a_0  _C26       6.000000000000e+06
    MARK      'MARKER'                 'INTEND'
    MARK      'MARKER'                 'INTORG'
    EXE_task_c_0_task_a_1  _C27      -6.000000000000e+06
    EXE_task_c_0_task_a_1  _C28       6.000000000000e+06
    MARK      'MARKER'                 'INTEND'
    MARK      'MARKER'                 'INTORG'
    EXE_task_c_0_task_b_0  _C29      -6.000000000000e+06
    EXE_task_c_0_task_b_0  _C30       6.000000000000e+06
    MARK      'MARKER'                 'INTEND'
    MARK      'MARKER'                 'INTORG'
    EXE_task_c_0_task_b_1  _C31      -6.000000000000e+06
    EXE_task_c_0_task_b_1  _C32       6.000000000000e+06
    MARK      'MARKER'                 'INTEND'
    MARK      'MARKER'                 'INTORG'
    EXE_task_c_0_task_b_2  _C33      -6.000000000000e+06
    EXE_task_c_0_task_b_2  _C34       6.000000000000e+06
    MARK      'MARKER'                 'INTEND'
    MARK      'MARKER'                 'INTORG'
    EXE_task_c_1_task_a_0  _C35      -6.000000000000e+06
    EXE_task_c_1_task_a_0  _C36       6.000000000000e+06
    MARK      'MARKER'                 'INTEND'
    MARK      'MARKER'                 'INTORG'
    EXE_task_c_1_task_a_1  _C37      -6.000000000000e+06
    EXE_task_c_1_task_a_1  _C38       6.000000000000e+06
    MARK      'MARKER'                 'INTEND'
    MARK      'MARKER'                 'INTORG'
    EXE_task_c_1_task_b_0  _C39      -6.000000000000e+06
    EXE_task_c_1_task_b_0  _C40       6.000000000000e+06
    MARK      'MARKER'                 'INTEND'
    MARK      'MARKER'                 'INTORG'
    EXE_task_c_1_task_b_1  _C41      -6.000000000000e+06
    EXE_task_c_1_task_b_1  _C42       6.000000000000e+06
    MARK      'MARKER'                 'INTEND'
    MARK      'MARKER'                 'INTORG'
    EXE_task_c_1_task_b_2  _C43      -6.000000000000e+06
    EXE_task_c_1_task_b_2  _C44       6.000000000000e+06
    MARK      'MARKER'                 'INTEND'
    MARK      'MARKER'                 'INTORG'
    EXE_task_c_2_task_a_0  _C45      -6.000000000000e+06
    EXE_task_c_2_task_a_0  _C46       6.000000000000e+06
    MARK      'MARKER'                 'INTEND'
    MARK      'MARKER'                 'INTORG'
    EXE_task_c_2_task_a_1  _C47      -6.000000000000e+06
    EXE_task_c_2_task_a_1  _C48       6.000000000000e+06
    MARK      'MARKER'                 'INTEND'
    MARK      'MARKER'                 'INTORG'
    EXE_task_c_2_task_b_0  _C49      -6.000000000000e+06
    EXE_task_c_2_task_b_0  _C50       6.000000000000e+06
    MARK      'MARKER'                 'INTEND'
    MARK      'MARKER'                 'INTORG'
    EXE_task_c_2_task_b_1  _C51      -6.000000000000e+06
    EXE_task_c_2_task_b_1  _C52       6.000000000000e+06
    MARK      'MARKER'                 'INTEND'
    MARK      'MARKER'                 'INTORG'
    EXE_task_c_2_task_b_2  _C53      -6.000000000000e+06
    EXE_task_c_2_task_b_2  _C54       6.000000000000e+06
    MARK      'MARKER'                 'INTEND'
    MARK      'MARKER'                 'INTORG'
    Utask_a_0_end_time  _C2        1.000000000000e+00
    Utask_a_0_end_time  _C3        1.000000000000e+00
    Utask_a_0_end_time  _C26       1.000000000000e+00
    Utask_a_0_end_time  _C36       1.000000000000e+00
    Utask_a_0_end_time  _C46       1.000000000000e+00
    Utask_a_0_end_time  _C56       1.000000000000e+00
    Utask_a_0_end_time  _C60       1.000000000000e+00
    Utask_a_0_end_time  _C64       1.000000000000e+00
    Utask_a_0_end_time  _C67       1.000000000000e+00
    Utask_a_0_end_time  _C76       1.000000000000e+00
    Utask_a_0_end_time  _C85       1.000000000000e+00
    MARK      'MARKER'                 'INTEND'
    MARK      'MARKER'                 'INTORG'
    Utask_a_0_start_time  _C1        1.000000000000e+00
    Utask_a_0_start_time  _C3       -1.000000000000e+00
    Utask_a_0_start_time  _C25      -1.000000000000e+00
    Utask_a_0_start_time  _C35      -1.000000000000e+00
    Utask_a_0_start_time  _C45      -1.000000000000e+00
    Utask_a_0_start_time  _C55      -1.000000000000e+00
    Utask_a_0_start_time  _C59      -1.000000000000e+00
    Utask_a_0_start_time  _C63      -1.000000000000e+00
    Utask_a_0_start_time  _C69      -1.000000000000e+00
    Utask_a_0_start_time  _C70      -1.000000000000e+00
    Utask_a_0_start_time  _C78      -1.000000000000e+00
    Utask_a_0_start_time  _C79      -1.000000000000e+00
    Utask_a_0_start_time  _C87      -1.000000000000e+00
    Utask_a_0_start_time  _C88      -1.000000000000e+00
    MARK      'MARKER'                 'INTEND'
    MARK      'MARKER'                 'INTORG'
    Utask_a_1_end_time  _C5        1.000000000000e+00
    Utask_a_1_end_time  _C6        1.000000000000e+00
    Utask_a_1_end_time  _C28       1.000000000000e+00
    Utask_a_1_end_time  _C38       1.000000000000e+00
    Utask_a_1_end_time  _C48       1.000000000000e+00
    Utask_a_1_end_time  _C58       1.000000000000e+00
    Utask_a_1_end_time  _C62       1.000000000000e+00
    Utask_a_1_end_time  _C66       1.000000000000e+00
    Utask_a_1_end_time  _C71       1.000000000000e+00
    Utask_a_1_end_time  _C80       1.000000000000e+00
    Utask_a_1_end_time  _C89       1.000000000000e+00
    MARK      'MARKER'                 'INTEND'
    MARK      'MARKER'                 'INTORG'
    Utask_a_1_start_time  _C4        1.000000000000e+00
    Utask_a_1_start_time  _C6       -1.000000000000e+00
    Utask_a_1_start_time  _C27      -1.000000000000e+00
    Utask_a_1_start_time  _C37      -1.000000000000e+00
    Utask_a_1_start_time  _C47      -1.000000000000e+00
    Utask_a_1_start_time  _C57      -1.000000000000e+00
    Utask_a_1_start_time  _C61      -1.000000000000e+00
    Utask_a_1_start_time  _C65      -1.000000000000e+00
    Utask_a_1_start_time  _C73      -1.000000000000e+00
    Utask_a_1_start_time  _C74      -1.000000000000e+00
    Utask_a_1_start_time  _C82      -1.000000000000e+00
    Utask_a_1_start_time  _C83      -1.000000000000e+00
    Utask_a_1_start_time  _C91      -1.000000000000e+00
    Utask_a_1_start_time  _C92      -1.000000000000e+00
    MARK      'MARKER'                 'INTEND'
    MARK      'MARKER'                 'INTORG'
    Utask_b_0_end_time  _C8        1.000000000000e+00
    Utask_b_0_end_time  _C9        1.000000000000e+00
    Utask_b_0_end_time  _C30       1.000000000000e+00
    Utask_b_0_end_time  _C40       1.000000000000e+00
    Utask_b_0_end_time  _C50       1.000000000000e+00
    Utask_b_0_end_time  _C55       1.000000000000e+00
    Utask_b_0_end_time  _C57       1.000000000000e+00
    Utask_b_0_end_time  _C94       1.000000000000e+00
    Utask_b_0_end_time  _C107      1.000000000000e+00
    Utask_b_0_end_time  _C120      1.000000000000e+00
    MARK      'MARKER'                 'INTEND'
    MARK      'MARKER'                 'INTORG'
    Utask_b_0_start_time  _C7        1.000000000000e+00
    Utask_b_0_start_time  _C9       -1.000000000000e+00
    Utask_b_0_start_time  _C29      -1.000000000000e+00
    Utask_b_0_start_time  _C39      -1.000000000000e+00
    Utask_b_0_start_time  _C49      -1.000000000000e+00
    Utask_b_0_start_time  _C56      -1.000000000000e+00
    Utask_b_0_start_time  _C58      -1.000000000000e+00
    Utask_b_0_start_time  _C96      -1.000000000000e+00
    Utask_b_0_start_time  _C97      -1.000000000000e+00
    Utask_b_0_start_time  _C109     -1.000000000000e+00
    Utask_b_0_start_time  _C110     -1.000000000000e+00
    Utask_b_0_start_time  _C122     -1.000000000000e+00
    Utask_b_0_start_time  _C123     -1.000000000000e+00
    MARK      'MARKER'                 'INTEND'
    MARK      'MARKER'                 'INTORG'
    Utask_b_1_end_time  _C11       1.000000000000e+00
    Utask_b_1_end_time  _C12       1.000000000000e+00
    Utask_b_1_end_time  _C32       1.000000000000e+00
    Utask_b_1_end_time  _C42       1.000000000000e+00
    Utask_b_1_end_time  _C52       1.000000000000e+00
    Utask_b_1_end_time  _C59       1.000000000000e+00
    Utask_b_1_end_time  _C61       1.000000000000e+00
    Utask_b_1_end_time  _C98       1.000000000000e+00
    Utask_b_1_end_time  _C111      1.000000000000e+00
    Utask_b_1_end_time  _C124      1.000000000000e+00
    MARK      'MARKER'                 'INTEND'
    MARK      'MARKER'                 'INTORG'
    Utask_b_1_start_time  _C10       1.000000000000e+00
    Utask_b_1_start_time  _C12      -1.000000000000e+00
    Utask_b_1_start_time  _C31      -1.000000000000e+00
    Utask_b_1_start_time  _C41      -1.000000000000e+00
    Utask_b_1_start_time  _C51      -1.000000000000e+00
    Utask_b_1_start_time  _C60      -1.000000000000e+00
    Utask_b_1_start_time  _C62      -1.000000000000e+00
    Utask_b_1_start_time  _C100     -1.000000000000e+00
    Utask_b_1_start_time  _C101     -1.000000000000e+00
    Utask_b_1_start_time  _C113     -1.000000000000e+00
    Utask_b_1_start_time  _C114     -1.000000000000e+00
    Utask_b_1_start_time  _C126     -1.000000000000e+00
    Utask_b_1_start_time  _C127     -1.000000000000e+00
    MARK      'MARKER'                 'INTEND'
    MARK      'MARKER'                 'INTORG'
    Utask_b_2_end_time  _C14       1.000000000000e+00
    Utask_b_2_end_time  _C15       1.000000000000e+00
    Utask_b_2_end_time  _C34       1.000000000000e+00
    Utask_b_2_end_time  _C44       1.000000000000e+00
    Utask_b_2_end_time  _C54       1.000000000000e+00
    Utask_b_2_end_time  _C63       1.000000000000e+00
    Utask_b_2_end_time  _C65       1.000000000000e+00
    Utask_b_2_end_time  _C102      1.000000000000e+00
    Utask_b_2_end_time  _C115      1.000000000000e+00
    Utask_b_2_end_time  _C128      1.000000000000e+00
    MARK      'MARKER'                 'INTEND'
    MARK      'MARKER'                 'INTORG'
    Utask_b_2_start_time  _C13       1.000000000000e+00
    Utask_b_2_start_time  _C15      -1.000000000000e+00
    Utask_b_2_start_time  _C33      -1.000000000000e+00
    Utask_b_2_start_time  _C43      -1.000000000000e+00
    Utask_b_2_start_time  _C53      -1.000000000000e+00
    Utask_b_2_start_time  _C64      -1.000000000000e+00
    Utask_b_2_start_time  _C66      -1.000000000000e+00
    Utask_b_2_start_time  _C104     -1.000000000000e+00
    Utask_b_2_start_time  _C105     -1.000000000000e+00
    Utask_b_2_start_time  _C117     -1.000000000000e+00
    Utask_b_2_start_time  _C118     -1.000000000000e+00
    Utask_b_2_start_time  _C130     -1.000000000000e+00
    Utask_b_2_start_time  _C131     -1.000000000000e+00
    MARK      'MARKER'                 'INTEND'
    MARK      'MARKER'                 'INTORG'
    Utask_c_0_end_time  _C17       1.000000000000e+00
    Utask_c_0_end_time  _C18       1.000000000000e+00
    Utask_c_0_end_time  _C25       1.000000000000e+00
    Utask_c_0_end_time  _C27       1.000000000000e+00
    Utask_c_0_end_time  _C29       1.000000000000e+00
    Utask_c_0_end_time  _C31       1.000000000000e+00
    Utask_c_0_end_time  _C33       1.000000000000e+00
    Utask_c_0_end_time  _C69       1.000000000000e+00
    Utask_c_0_end_time  _C70       1.000000000000e+00
    Utask_c_0_end_time  _C73       1.000000000000e+00
    Utask_c_0_end_time  _C74       1.000000000000e+00
    Utask_c_0_end_time  _C96       1.000000000000e+00
    Utask_c_0_end_time  _C97       1.000000000000e+00
    Utask_c_0_end_time  _C100      1.000000000000e+00
    Utask_c_0_end_time  _C101      1.000000000000e+00
    Utask_c_0_end_time  _C104      1.000000000000e+00
    Utask_c_0_end_time  _C105      1.000000000000e+00
    MARK      'MARKER'                 'INTEND'
    MARK      'MARKER'                 'INTORG'
    Utask_c_0_start_time  _C16       1.000000000000e+00
    Utask_c_0_start_time  _C18      -1.000000000000e+00
    Utask_c_0_start_time  _C26      -1.000000000000e+00
    Utask_c_0_start_time  _C28      -1.000000000000e+00
    Utask_c_0_start_time  _C30      -1.000000000000e+00
    Utask_c_0_start_time  _C32      -1.000000000000e+00
    Utask_c_0_start_time  _C34      -1.000000000000e+00
    Utask_c_0_start_time  _C67      -1.000000000000e+00
    Utask_c_0_start_time  _C71      -1.000000000000e+00
    Utask_c_0_start_time  _C94      -1.000000000000e+00
    Utask_c_0_start_time  _C98      -1.000000000000e+00
    Utask_c_0_start_time  _C102     -1.000000000000e+00
    MARK      'MARKER'                 'INTEND'
    MARK      'MARKER'                 'INTORG'
    Utask_c_1_end_time  _C20       1.000000000000e+00
    Utask_c_1_end_time  _C21       1.000000000000e+00
    Utask_c_1_end_time  _C35       1.000000000000e+00
    Utask_c_1_end_time  _C37       1.000000000000e+00
    Utask_c_1_end_time  _C39       1.000000000000e+00
    Utask_c_1_end_time  _C41       1.000000000000e+00
    Utask_c_1_end_time  _C43       1.000000000000e+00
    Utask_c_1_end_time  _C78       1.000000000000e+00
    Utask_c_1_end_time  _C79       1.000000000000e+00
    Utask_c_1_end_time  _C82       1.000000000000e+00
    Utask_c_1_end_time  _C83       1.000000000000e+00
    Utask_c_1_end_time  _C109      1.000000000000e+00
    Utask_c_1_end_time  _C110      1.000000000000e+00
    Utask_c_1_end_time  _C113      1.000000000000e+00
    Utask_c_1_end_time  _C114      1.000000000000e+00
    Utask_c_1_end_time  _C117      1.000000000000e+00
    Utask_c_1_end_time  _C118      1.000000000000e+00
    MARK      'MARKER'                 'INTEND'
    MARK      'MARKER'                 'INTORG'
    Utask_c_1_start_time  _C19       1.000000000000e+00
    Utask_c_1_start_time  _C21      -1.000000000000e+00
    Utask_c_1_start_time  _C36      -1.000000000000e+00
    Utask_c_1_start_time  _C38      -1.000000000000e+00
    Utask_c_1_start_time  _C40      -1.000000000000e+00
    Utask_c_1_start_time  _C42      -1.000000000000e+00
    Utask_c_1_start_time  _C44      -1.000000000000e+00
    Utask_c_1_start_time  _C76      -1.000000000000e+00
    Utask_c_1_start_time  _C80      -1.000000000000e+00
    Utask_c_1_start_time  _C107     -1.000000000000e+00
    Utask_c_1_start_time  _C111     -1.000000000000e+00
    Utask_c_1_start_time  _C115     -1.000000000000e+00
    MARK      'MARKER'                 'INTEND'
    MARK      'MARKER'                 'INTORG'
    Utask_c_2_end_time  _C23       1.000000000000e+00
    Utask_c_2_end_time  _C24       1.000000000000e+00
    Utask_c_2_end_time  _C45       1.000000000000e+00
    Utask_c_2_end_time  _C47       1.000000000000e+00
    Utask_c_2_end_time  _C49       1.000000000000e+00
    Utask_c_2_end_time  _C51       1.000000000000e+00
    Utask_c_2_end_time  _C53       1.000000000000e+00
    Utask_c_2_end_time  _C87       1.000000000000e+00
    Utask_c_2_end_time  _C88       1.000000000000e+00
    Utask_c_2_end_time  _C91       1.000000000000e+00
    Utask_c_2_end_time  _C92       1.000000000000e+00
    Utask_c_2_end_time  _C122      1.000000000000e+00
    Utask_c_2_end_time  _C123      1.000000000000e+00
    Utask_c_2_end_time  _C126      1.000000000000e+00
    Utask_c_2_end_time  _C127      1.000000000000e+00
    Utask_c_2_end_time  _C130      1.000000000000e+00
    Utask_c_2_end_time  _C131      1.000000000000e+00
    MARK      'MARKER'                 'INTEND'
    MARK      'MARKER'                 'INTORG'
    Utask_c_2_start_time  _C22       1.000000000000e+00
    Utask_c_2_start_time  _C24      -1.000000000000e+00
    Utask_c_2_start_time  _C46      -1.000000000000e+00
    Utask_c_2_start_time  _C48      -1.000000000000e+00
    Utask_c_2_start_time  _C50      -1.000000000000e+00
    Utask_c_2_start_time  _C52      -1.000000000000e+00
    Utask_c_2_start_time  _C54      -1.000000000000e+00
    Utask_c_2_start_time  _C85      -1.000000000000e+00
    Utask_c_2_start_time  _C89      -1.000000000000e+00
    Utask_c_2_start_time  _C120     -1.000000000000e+00
    Utask_c_2_start_time  _C124     -1.000000000000e+00
    Utask_c_2_start_time  _C128     -1.000000000000e+00
    MARK      'MARKER'                 'INTEND'
    MARK      'MARKER'                 'INTORG'
    sumDependencyDelays  _C148      1.000000000000e+00
    sumDependencyDelays  OBJ        1.000000000000e+00
    MARK      'MARKER'                 'INTEND'
RHS
    RHS       _C1        0.000000000000e+00
    RHS       _C2        3.000000000000e+06
    RHS       _C3        5.000000000000e+05
    RHS       _C4        3.000000000000e+06
    RHS       _C5        6.000000000000e+06
    RHS       _C6        5.000000000000e+05
    RHS       _C7        0.000000000000e+00
    RHS       _C8        2.000000000000e+06
    RHS       _C9        4.000000000000e+05
    RHS       _C10       2.000000000000e+06
    RHS       _C11       4.000000000000e+06
    RHS       _C12       4.000000000000e+05
    RHS       _C13       4.000000000000e+06
    RHS       _C14       6.000000000000e+06
    RHS       _C15       4.000000000000e+05
    RHS       _C16       0.000000000000e+00
    RHS       _C17       2.000000000000e+06
    RHS       _C18       1.000000000000e+05
    RHS       _C19       2.000000000000e+06
    RHS       _C20       4.000000000000e+06
    RHS       _C21       1.000000000000e+05
    RHS       _C22       4.000000000000e+06
    RHS       _C23       6.000000000000e+06
    RHS       _C24       1.000000000000e+05
    RHS       _C25       0.000000000000e+00
    RHS       _C26       6.000000000000e+06
    RHS       _C27       0.000000000000e+00
    RHS       _C28       6.000000000000e+06
    RHS       _C29       0.000000000000e+00
    RHS       _C30       6.000000000000e+06
    RHS       _C31       0.000000000000e+00
    RHS       _C32       6.000000000000e+06
    RHS       _C33       0.000000000000e+00
    RHS       _C34       6.000000000000e+06
    RHS       _C35       0.000000000000e+00
    RHS       _C36       6.000000000000e+06
    RHS       _C37       0.000000000000e+00
    RHS       _C38       6.000000000000e+06
    RHS       _C39       0.000000000000e+00
    RHS       _C40       6.000000000000e+06
    RHS       _C41       0.000000000000e+00
    RHS       _C42       6.000000000000e+06
    RHS       _C43       0.000000000000e+00
    RHS       _C44       6.000000000000e+06
    RHS       _C45       0.000000000000e+00
    RHS       _C46       6.000000000000e+06
    RHS       _C47       0.000000000000e+00
    RHS       _C48       6.000000000000e+06
    RHS       _C49       0.000000000000e+00
    RHS       _C50       6.000000000000e+06
    RHS       _C51       0.000000000000e+00
    RHS       _C52       6.000000000000e+06
    RHS       _C53       0.000000000000e+00
    RHS       _C54       6.000000000000e+06
    RHS       _C55       0.000000000000e+00
    RHS       _C56       6.000000000000e+06
    RHS       _C57       0.000000000000e+00
    RHS       _C58       6.000000000000e+06
    RHS       _C59       0.000000000000e+00
    RHS       _C60       6.000000000000e+06
    RHS       _C61       0.000000000000e+00
    RHS       _C62       6.000000000000e+06
    RHS       _C63       0.000000000000e+00
    RHS       _C64       6.000000000000e+06
    RHS       _C65       0.000000000000e+00
    RHS       _C66       6.000000000000e+06
    RHS       _C67       6.000000000000e+06
    RHS       _C68       0.000000000000e+00
    RHS       _C69       6.000000000000e+06
    RHS       _C70       6.000000000000e+06
    RHS       _C71       6.000000000000e+06
    RHS       _C72       0.000000000000e+00
    RHS       _C73       6.000000000000e+06
    RHS       _C74       6.000000000000e+06
    RHS       _C75       1.000000000000e+00
    RHS       _C76       6.000000000000e+06
    RHS       _C77       0.000000000000e+00
    RHS       _C78       6.000000000000e+06
    RHS       _C79       6.000000000000e+06
    RHS       _C80       6.000000000000e+06
    RHS       _C81       0.000000000000e+00
    RHS       _C82       6.000000000000e+06
    RHS       _C83       6.000000000000e+06
    RHS       _C84       1.000000000000e+00
    RHS       _C85       6.000000000000e+06
    RHS       _C86       0.000000000000e+00
    RHS       _C87       6.000000000000e+06
    RHS       _C88       6.000000000000e+06
    RHS       _C89       6.000000000000e+06
    RHS       _C90       0.000000000000e+00
    RHS       _C91       6.000000000000e+06
    RHS       _C92       6.000000000000e+06
    RHS       _C93       1.000000000000e+00
    RHS       _C94       6.000000000000e+06
    RHS       _C95       0.000000000000e+00
    RHS       _C96       6.000000000000e+06
    RHS       _C97       6.000000000000e+06
    RHS       _C98       6.000000000000e+06
    RHS       _C99       0.000000000000e+00
    RHS       _C100      6.000000000000e+06
    RHS       _C101      6.000000000000e+06
    RHS       _C102      6.000000000000e+06
    RHS       _C103      0.000000000000e+00
    RHS       _C104      6.000000000000e+06
    RHS       _C105      6.000000000000e+06
    RHS       _C106      1.000000000000e+00
    RHS       _C107      6.000000000000e+06
    RHS       _C108      0.000000000000e+00
    RHS       _C109      6.000000000000e+06
    RHS       _C110      6.000000000000e+06
    RHS       _C111      6.000000000000e+06
    RHS       _C112      0.000000000000e+00
    RHS       _C113      6.000000000000e+06
    RHS       _C114      6.000000000000e+06
    RHS       _C115      6.000000000000e+06
    RHS       _C116      0.000000000000e+00
    RHS       _C117      6.000000000000e+06
    RHS       _C118      6.000000000000e+06
    RHS       _C119      1.000000000000e+00
    RHS       _C120      6.000000000000e+06
    RHS       _C121      0.000000000000e+00
    RHS       _C122      6.000000000000e+06
    RHS       _C123      6.000000000000e+06
    RHS       _C124      6.000000000000e+06
    RHS       _C125      0.000000000000e+00
    RHS       _C126      6.000000000000e+06
    RHS       _C127      6.000000000000e+06
    RHS       _C128      6.000000000000e+06
    RHS       _C129      0.000000000000e+00
    RHS       _C130      6.000000000000e+06
    RHS       _C131      6.000000000000e+06
    RHS       _C132      1.000000000000e+00
    RHS       _C133      1.099999000000e+06
    RHS       _C134      1.099999000000e+06
    RHS       _C135      1.099999000000e+06
    RHS       _C136      1.099999000000e+06
    RHS       _C137      1.099999000000e+06
    RHS       _C138      1.099999000000e+06
    RHS       _C139      6.000000000000e+05
    RHS       _C140      6.000000000000e+05
    RHS       _C141      6.000000000000e+05
    RHS       _C142      6.000000000000e+05
    RHS       _C143      6.000000000000e+05
    RHS       _C144      6.000000000000e+05
    RHS       _C145      6.000000000000e+05
    RHS       _C146      6.000000000000e+05
    RHS       _C147      6.000000000000e+05
    RHS       _C148      0.000000000000e+00
BOUNDS
 FR BND       DELAY_task_a_0_task_c_0
 FR BND       DELAY_task_a_0_task_c_1
 FR BND       DELAY_task_a_0_task_c_2
 FR BND       DELAY_task_a_1_task_c_0
 FR BND       DELAY_task_a_1_task_c_1
 FR BND       DELAY_task_a_1_task_c_2
 FR BND       DELAY_task_b_0_task_c_0
 FR BND       DELAY_task_b_0_task_c_1
 FR BND       DELAY_task_b_0_task_c_2
 FR BND       DELAY_task_b_1_task_c_0
 FR BND       DELAY_task_b_1_task_c_1
 FR BND       DELAY_task_b_1_task_c_2
 FR BND       DELAY_task_b_2_task_c_0
 FR BND       DELAY_task_b_2_task_c_1
 FR BND       DELAY_task_b_2_task_c_2
 BV BND       DEP_task_a_0_task_c_0
 BV BND       DEP_task_a_0_task_c_1
 BV BND       DEP_task_a_0_task_c_2
 BV BND       DEP_task_a_1_task_c_0
 BV BND       DEP_task_a_1_task_c_1
 BV BND       DEP_task_a_1_task_c_2
 BV BND       DEP_task_b_0_task_c_0
 BV BND       DEP_task_b_0_task_c_1
 BV BND       DEP_task_b_0_task_c_2
 BV BND       DEP_task_b_1_task_c_0
 BV BND       DEP_task_b_1_task_c_1
 BV BND       DEP_task_b_1_task_c_2
 BV BND       DEP_task_b_2_task_c_0
 BV BND       DEP_task_b_2_task_c_1
 BV BND       DEP_task_b_2_task_c_2
 BV BND       EXE_task_b_0_task_a_0
 BV BND       EXE_task_b_0_task_a_1
 BV BND       EXE_task_b_1_task_a_0
 BV BND       EXE_task_b_1_task_a_1
 BV BND       EXE_task_b_2_task_a_0
 BV BND       EXE_task_b_2_task_a_1
 BV BND       EXE_task_c_0_task_a_0
 BV BND       EXE_task_c_0_task_a_1
 BV BND       EXE_task_c_0_task_b_0
 BV BND       EXE_task_c_0_task_b_1
 BV BND       EXE_task_c_0_task_b_2
 BV BND       EXE_task_c_1_task_a_0
 BV BND       EXE_task_c_1_task_a_1
 BV BND       EXE_task_c_1_task_b_0
 BV BND       EXE_task_c_1_task_b_1
 BV BND       EXE_task_c_1_task_b_2
 BV BND       EXE_task_c_2_task_a_0
 BV BND       EXE_task_c_2_task_a_1
 BV BND       EXE_task_c_2_task_b_0
 BV BND       EXE_task_c_2_task_b_1
 BV BND       EXE_task_c_2_task_b_2
 FR BND       Utask_a_0_end_time
 FR BND       Utask_a_0_start_time
 FR BND       Utask_a_1_end_time
 FR BND       Utask_a_1_start_time
 FR BND       Utask_b_0_end_time
 FR BND       Utask_b_0_start_time
 FR BND       Utask_b_1_end_time
 FR BND       Utask_b_1_start_time
 FR BND       Utask_b_2_end_time
 FR BND       Utask_b_2_start_time
 FR BND       Utask_c_0_end_time
 FR BND       Utask_c_0_start_time
 FR BND       Utask_c_1_end_time
 FR BND       Utask_c_1_start_time
 FR BND       Utask_c_2_end_time
 FR BND       Utask_c_2_start_time
 FR BND       sumDependencyDelays
ENDATA
